NAME : n40w100.004.476.tour
COMMENT : Length = 476
COMMENT : Found by LKH [Keld Helsgaun] Tue Nov  7 19:35:17 2017
TYPE : TOUR
DIMENSION : 41
TOUR_SECTION
1
3
4
19
17
25
12
29
30
18
2
40
11
7
21
27
20
28
16
38
23
6
8
22
33
39
24
34
35
14
15
31
13
37
10
41
9
26
36
32
5
-1
EOF
